lbl,CUST NO.,READY TIME,XCOORD.,YCOORD.,DEMAND,DUE DATE,SERVICE TIME
0,59,0,99,108,20,1214,90
0,89,0,103,111,20,1209,90
0,26,201,102,104,20,258,90
0,152,296,103,106,30,347,90
0,40,390,104,106,20,434,90
0,153,472,107,105,10,539,90
0,14,567,100,106,10,626,90
0,169,567,105,110,20,634,90
0,105,754,102,110,10,814,90
0,15,846,99,112,20,911,90
0,198,1038,101,107,10,1090,90
